c --- [ banner ] -------------------------------------------------------------
c 
c CaDiCaL Radically Simplified CDCL SAT Solver
c Copyright (c) 2016-2021 A. Biere, M. Fleury, N. Froleyks
c 
c Version 1.5.2 ca2dd1661408261d5d9922f656c807ded88978da
c g++ (Ubuntu 7.5.0-3ubuntu1~18.04) 7.5.0 -Wall -Wextra -O3 -DNDEBUG
c Sat Feb 26 22:54:12 EST 2022 Linux fac-vanhoeve01 5.4.0-99-generic x86_64
c 
c --- [ parsing input ] ------------------------------------------------------
c 
c reading DIMACS file from '<stdin>' (use '-h' for a list of common options)
c found 'p cnf 2692 7976' header
c parsed 7976 clauses in 0.00 seconds process time
c disconnecting from '<stdin>'
c after reading 106558 bytes 0.1 MB
c 
c --- [ options ] ------------------------------------------------------------
c 
c all options are set to their default value
c 
c --- [ solving ] ------------------------------------------------------------
c 
c time measured in process time since initialization
c 
c  seconds  reductions  redundant irredundant
c         MB    restarts       trail    variables
c          level   conflicts       glue      remaining
c 
c *  0.00  5  0 0   0    0    0  0% 0 7974 2618 97%
c {  0.01  5  0 0   0    0    0  0% 0 7974 2618 97%
c -  0.02  5 48 1  14  301  285 78% 8 7902 2618 97%
c -  0.06  5 30 2  73  902  718 79% 9 7902 2618 97%
c }  0.06  5 29 2  73 1000  805 78% 9 7902 2618 97%
c [  0.06  5  0 2  73 1000  805  0% 0 7902 2618 97%
c O  0.06  5 18 2  73 1003  808 93% 10 7902 2618 97%
c -  0.11  6 17 3  73 1803  959 93% 14 7902 2618 97%
c ]  0.17  6 16 3  74 3001 1752 92% 13 7902 2618 97%
c {  0.17  6 29 3  74 3001 1752 78% 9 7902 2618 97%
c -  0.17  6 29 4  74 3003 1215 78% 9 7902 2618 97%
c F  0.18  6 29 4  74 3004 1216 78% 9 7902 2618 97%
c s  0.19  6 29 4 105 3214 1403 79% 9 7902 2618 97%
c e  0.22  6 29 4 105 3214   72 79% 9 5685 885 33%
c s  0.22  6 29 4 105 3214   67 79% 9 5685 885 33%
c -  0.28  6 23 5 210 4504 1171 75% 9 5685 885 33%
c p  0.30  6 23 5 294 5000 1642 77% 9 5685 885 33%
c #  0.35  6 22 5 380 6008 2579 78% 9 5685 885 33%
c -  0.36  6 22 6 388 6306 2298 79% 9 5685 885 33%
c }  0.39  6 22 6 484 7001 2943 80% 9 5685 885 33%
c 
c  seconds  reductions  redundant   irredundant
c         MB    restarts       trail      variables
c          level   conflicts        glue      remaining
c 
c [  0.39  6 16 6 484 7001 2943 279% 13 5685 885 33%
c -  0.46  6 18 7 485 8406 2858 196% 13 5685 885 33%
c I  0.54  6 18 7 486 10012 4301 159% 13 5685 885 33%
c -  0.58  7 20 8 487 10806 3244 150% 14 5685 885 33%
c -  0.72  7 21 9 489 13509 3472 130% 15 5685 885 33%
c s  0.75  7 21 9 489 13948 3820 128% 15 5685 885 33%
c w  0.75  7 21 9 489 13948 3820 128% 15 5685 885 33%
c s  0.76  7 21 9 489 13948 3820 128% 15 5685 885 33%
c ^  0.76  7 21 9 489 13948 3820 128% 15 5685 885 33%
c ]  0.82  7 21 9 489 15001 4634 124% 16 5685 885 33%
c {  0.82  7 22 9 489 15001 4634 80% 9 5685 885 33%
c p  0.82  7 22 9 489 15001 4642 80% 9 5685 885 33%
c B  0.82  7 22 9 492 15014 4655 80% 9 5685 885 33%
c -  0.89  7 22 10 593 16510 3970 80% 9 5685 885 33%
c -  1.03  6 21 11 771 19811 4521 79% 9 5685 885 33%
c W  1.10  6 20 11 795 21017 5628 80% 9 5685 885 33%
c -  1.21  7 20 12 947 23412 5308 80% 9 5685 885 33%
c -  1.40  7 19 13 1334 27312 5936 81% 9 5685 885 33%
c F  1.44  7 19 13 1392 28019 6595 81% 10 5685 885 33%
c p  1.53  7 19 13 1522 30004 8421 81% 10 5685 885 33%
c 
c  seconds  reductions     redundant  irredundant
c         MB     restarts         trail     variables
c          level      conflicts       glue      remaining
c 
c s  1.54  7 19 13 1524 30050 8438 81% 10 5685 885 33%
c s  1.57  7 19 13 1524 30050 8433 81% 10 5685 885 33%
c ^  1.57  7 19 13 1524 30050 8433 81% 10 5685 885 33%
c }  1.62  7 19 13 1593 31001 9317 81% 10 5685 885 33%
c [  1.62  7 21 13 1593 31001 9317 124% 16 5685 885 33%
c -  1.64  7 21 14 1593 31512 6532 122% 15 5685 885 33%
c -  1.88  7 22 15 1596 36012 6582 111% 15 5685 885 33%
c B  1.88  7 22 15 1596 36022 6592 111% 15 5685 885 33%
c -  2.15  8 25 16 1599 40812 6604 106% 17 5685 885 33%
c W  2.42  8 26 16 1600 45023 10268 102% 17 5685 885 33%
c -  2.48  8 26 17 1601 45913 7158 102% 17 5685 885 33%
c p  2.72  8 25 17 1601 50006 10293 100% 17 5685 885 33%
c -  2.81  7 24 18 1601 51314 6717 100% 17 5685 885 33%
c s  2.83  7 24 18 1601 51518 6825 99% 17 5685 885 33%
c s  2.86  7 24 18 1601 51518 6824 99% 17 5685 885 33%
c ^  2.86  7 24 18 1601 51518 6824 99% 17 5685 885 33%
c O  3.06  7 24 18 1602 55024 8995 98% 17 5685 885 33%
c -  3.18  7 23 19 1604 57016 6520 98% 17 5685 885 33%
c ]  3.53  7 23 19 1608 63001 10301 96% 16 5685 885 33%
c {  3.53  7 19 19 1608 63001 10301 81% 10 5685 885 33%
c 
c  seconds  reductions     redundant  irredundant
c         MB     restarts         trail     variables
c          level      conflicts       glue      remaining
c 
c -  3.54  7 19 20 1612 63017 6695 81% 10 5685 885 33%
c B  3.68  7 20 20 1799 66025 9481 81% 10 5685 885 33%
c -  3.84  8 20 21 2008 69319 8543 82% 10 5685 885 33%
c p  4.12  8 19 21 2258 75008 13602 82% 10 5685 885 33%
c -  4.18  9 19 22 2388 75919 9809 82% 10 5685 885 33%
c W  4.32  9 19 22 2572 78029 11710 82% 10 5685 885 33%
c s  4.35  9 19 22 2591 78354 11960 82% 10 5685 885 33%
c w  4.37  9 19 22 2591 78354 11955 82% 10 5685 885 33%
c s  4.40  9 19 22 2591 78354 11946 82% 10 5685 885 33%
c ^  4.40  9 19 22 2591 78354 11946 82% 10 5685 885 33%
c -  4.65 10 19 23 2904 82819 11187 82% 10 5685 885 33%
c -  5.05  9 19 24 3538 90019 11711 83% 10 5685 885 33%
c #  5.10  9 19 24 3585 91031 12646 83% 10 5685 885 33%
c -  5.46 10 19 25 3907 97519 12349 83% 10 5685 885 33%
c p  5.88 10 19 25 4425 105008 19144 83% 10 5685 885 33%
c B  5.88 10 19 25 4425 105035 19170 83% 10 5685 885 33%
c -  5.91  9 19 26 4436 105320 13006 83% 10 5685 885 33%
c s  6.20  9 19 26 4736 110558 17641 83% 10 5685 885 33%
c w  6.22  9 19 26 4736 110558 17639 83% 10 5685 885 33%
c e  6.24  9 19 26 4736 110558 4021 83% 10 8121 567 21%
c 
c  seconds  reductions      redundant  irredundant
c         MB     restarts          trail     variables
c          level      conflicts        glue      remaining
c 
c s  6.25  9 19 26 4736 110558 4020 83% 10 8121 567 21%
c ^  6.25  9 19 26 4736 110558 4020 83% 10 8121 567 21%
c -  6.39  9 19 27 5016 113422 5236 79% 10 8121 567 21%
c W  6.75  9 19 27 5239 120037 11095 81% 10 8121 567 21%
c -  6.85  9 19 28 5353 121822 10007 82% 10 8121 567 21%
c }  7.13  9 19 28 5810 127001 14810 82% 10 8121 567 21%
c [  7.13  9 23 28 5810 127001 14810 150% 16 8121 567 21%
c -  7.34 11 22 29 5810 130522 13099 144% 16 8121 567 21%
c B  7.68 11 23 29 5815 136038 18302 137% 15 8121 567 21%
c -  7.88 11 24 30 5817 139523 13787 133% 16 8121 567 21%
c p  7.92 11 24 30 5817 140008 14175 132% 16 8121 567 21%
c -  8.42  9 23 31 5818 148823 12835 124% 16 8121 567 21%
c W  8.70  9 23 31 5819 153039 15813 121% 16 8121 567 21%
c -  9.01 11 26 32 5819 158423 13057 118% 17 8121 567 21%
c s  9.37 11 29 32 5819 164323 18400 114% 17 8121 567 21%
c w  9.40 11 29 32 5819 164323 18394 114% 17 8121 567 21%
c s  9.43 11 29 32 5819 164323 18385 114% 17 8121 567 21%
c -  9.72 13 29 33 5820 168324 14161 111% 18 8121 567 21%
c I  9.88 13 30 33 5822 171040 16588 110% 18 8121 567 21%
c - 10.39 11 30 34 5826 178526 14637 107% 18 8121 567 21%
c 
c  seconds  reductions       redundant   irredundant
c         MB     restarts           trail      variables
c          level      conflicts          glue      remaining
c 
c p 10.50 11 30 34 5826 180009 15998 107% 18 8121 567 21%
c - 11.13 12 30 35 5833 189029 14210 104% 18 8121 567 21%
c B 11.20 12 30 35 5833 190041 15040 104% 18 8121 567 21%
c - 11.77 12 31 36 5834 199831 14487 102% 19 8121 567 21%
c W 12.52 12 31 36 5841 210044 22542 100% 19 8121 567 21%
c - 12.60 12 30 37 5841 210933 15281 100% 19 8121 567 21%
c - 13.35 12 29 38 5848 222333 14949 98% 19 8121 567 21%
c p 13.53 12 29 38 5848 225009 17137 98% 19 8121 567 21%
c O 13.92 12 29 38 5849 231045 22169 97% 19 8121 567 21%
c - 14.12 12 29 39 5849 234034 15670 97% 19 8121 567 21%
c - 14.89 12 28 40 5850 246036 14260 95% 19 8121 567 21%
c B 15.31 12 28 40 5851 253049 19264 94% 19 8121 567 21%
c ] 15.42 12 28 40 5851 255001 20995 94% 19 8121 567 21%
c { 15.42 12 19 40 5851 255001 20995 82% 10 8121 567 21%
c - 15.63 12 19 41 6083 258336 16022 83% 10 8121 567 21%
c - 16.37 14 19 42 7010 270937 18316 82% 10 8121 567 21%
c p 16.61 14 19 42 7237 275010 21949 81% 10 8121 567 21%
c F 16.69 14 19 42 7350 276051 22931 81% 10 8121 567 21%
c - 17.19 14 19 43 7982 283840 20375 82% 10 8121 567 21%
c - 18.01 14 19 44 8698 297042 21524 81% 10 8121 567 21%
c 
c  seconds  reductions       redundant  irredundant
c         MB     restarts           trail     variables
c          level      conflicts         glue      remaining
c 
c B 18.21 14 19 44 9022 300054 24276 81% 10 8121 567 21%
c - 18.92 12 19 45 9581 310543 22722 82% 10 8121 567 21%
c - 19.92 12 19 46 10834 324343 23947 81% 10 8121 567 21%
c W 20.04 12 19 46 10853 325055 24525 81% 10 8121 567 21%
c p 20.41 12 19 46 11332 330010 29119 81% 10 8121 567 21%
c - 20.99 12 18 47 11865 338444 23965 81% 10 8121 567 21%
c # 21.87 12 18 47 12835 351056 35222 81% 10 8121 567 21%
c - 22.04 14 18 48 13029 352846 24876 81% 10 8121 567 21%
c - 23.15 12 18 49 14406 367546 25988 81% 10 8121 567 21%
c B 23.93 12 19 49 15368 378058 35442 81% 10 8121 567 21%
c - 24.31 13 18 50 15692 382546 26692 81% 10 8121 567 21%
c p 24.89 13 19 50 16337 390010 33593 81% 10 8121 567 21%
c - 25.56 13 19 51 17092 397848 27906 81% 10 8121 567 21%
c W 26.30 13 19 51 17697 406061 35299 81% 10 8121 567 21%
c - 26.89 13 18 52 18173 413449 28195 81% 10 8121 567 21%
c - 28.07 13 18 53 19250 429349 28936 81% 10 8121 567 21%
c F 28.48 13 18 53 19650 435064 33830 81% 10 8121 567 21%
c - 29.33 14 18 54 20302 445550 29581 81% 10 8121 567 21%
c p 29.97 14 18 54 20774 455010 37681 81% 10 8121 567 21%
c - 30.53 13 18 55 21107 462050 29424 80% 10 8121 567 21%
c 
c  seconds  reductions        redundant  irredundant
c         MB      restarts           trail     variables
c          level       conflicts         glue      remaining
c 
c B 30.73 13 18 55 21252 465071 32003 80% 10 8121 567 21%
c - 31.78 16 18 56 22163 478850 31003 81% 10 8121 567 21%
c s 31.84 16 18 56 22163 478850 30864 81% 10 8121 567 21%
c w 31.93 16 18 56 22163 478850 30842 81% 10 8121 567 21%
c t 31.93 16 18 56 22163 478850 30841 81% 10 8121 567 21%
c - 33.24 14 18 57 23206 495950 32256 81% 10 8121 567 21%
c W 33.39 14 18 57 23238 496073 32377 81% 10 8121 567 21%
c } 34.57 14 18 57 24490 511001 45419 81% 10 8121 567 21%
c [ 34.57 14 28 57 24490 511001 45419 94% 19 8121 567 21%
c - 34.76 16 28 58 24490 513350 32667 94% 19 8121 567 21%
c p 35.65 16 28 58 24490 525011 43365 93% 19 8121 566 21%
c s 35.74 16 28 58 24490 525011 43331 93% 19 8116 566 21%
c W 36.17 18 28 58 24490 528076 46161 93% 19 8116 566 21%
c - 36.43 14 28 59 24490 531051 33226 93% 19 8116 566 21%
c - 37.93 17 28 60 24497 549051 29697 92% 19 8116 566 21%
c I 38.91 17 29 60 24504 561077 40465 91% 20 8116 566 21%
c - 39.47 20 29 61 24505 567351 30417 91% 20 8116 566 21%
c - 41.27 20 30 62 24513 585951 31529 91% 20 8116 566 21%
c s 42.07 20 30 62 24518 594167 39017 91% 19 8111 566 21%
c w 42.15 20 30 62 24518 594167 39012 91% 19 8111 566 21%
c 
c  seconds  reductions        redundant  irredundant
c         MB      restarts           trail     variables
c          level       conflicts         glue      remaining
c 
c s 42.20 20 30 62 24518 594167 39011 91% 19 8111 566 21%
c B 42.31 20 30 62 24519 595078 39758 91% 19 8111 566 21%
c p 42.83 20 29 62 24520 600013 43675 91% 19 8111 566 21%
c - 43.36 20 29 63 24520 604853 30423 91% 19 8111 566 21%
c - 45.01 20 28 64 24522 624056 30140 90% 19 8111 566 21%
c W 45.67 20 28 64 24527 630079 35179 90% 19 8111 566 21%
c - 46.97 20 27 65 24534 643556 30095 90% 19 8111 566 21%
c - 48.61 20 25 66 24542 663356 29624 90% 18 8111 566 21%
c O 48.82 20 25 66 24543 666081 31188 89% 18 8111 566 21%
c p 49.83 20 25 66 24550 680015 41528 89% 18 8111 566 21%
c - 50.18 20 25 67 24551 683459 28897 89% 18 8111 566 21%
c B 51.68 20 24 67 24552 703084 44861 89% 18 8111 566 21%
c - 51.77 20 24 68 24552 703862 30874 89% 18 8111 566 21%
c - 53.43 20 24 69 24553 724562 30723 89% 18 8111 566 21%
c W 54.95 20 24 69 24554 741087 44859 88% 18 8111 566 21%
c - 55.42 20 24 70 24554 745562 32069 88% 18 8111 566 21%
c p 56.98 20 24 70 24554 765016 46909 88% 18 8111 566 21%
c - 57.20 20 24 71 24554 766863 31132 88% 18 8111 566 21%
c I 58.45 20 24 71 24554 780088 41106 88% 18 8111 566 21%
c - 59.18 20 25 72 24554 788463 33385 88% 18 8111 566 21%
c 
c  seconds  reductions        redundant  irredundant
c         MB      restarts           trail     variables
c          level       conflicts         glue      remaining
c 
c - 61.39 25 27 73 24558 810363 36712 88% 18 8111 566 21%
c B 62.39 25 27 73 24563 820090 45842 88% 18 8111 566 21%
c - 63.44 21 27 74 24569 832563 36851 88% 18 8111 566 21%
c p 65.46 21 26 74 24579 855016 54554 88% 18 8111 566 21%
c - 65.52 21 26 75 24579 855065 36058 88% 18 8111 566 21%
c W 66.25 21 25 75 24583 861091 40075 88% 18 8111 566 21%
c - 67.87 21 24 76 24585 877865 34231 89% 17 8111 566 21%
c - 70.02 21 23 77 24592 900965 34357 89% 17 8111 566 21%
c O 70.18 21 23 77 24594 903095 36142 89% 17 8111 566 21%
c - 71.95 21 23 78 24603 924365 35205 88% 17 8111 566 21%
c B 73.95 21 23 78 24614 946096 51590 88% 17 8111 566 21%
c - 74.16 21 23 79 24615 948066 34920 88% 17 8111 566 21%
c p 74.32 21 23 79 24615 950016 36393 88% 17 8111 566 21%
c - 76.17 21 22 80 24617 972068 34125 88% 17 8111 566 21%
c W 77.98 21 22 80 24617 990098 47665 88% 17 8111 566 21%
c - 78.66 21 22 81 24617 996368 34918 88% 17 8111 566 21%
c s 78.73 21 22 81 24617 996368 34876 88% 17 8111 566 21%
c w 78.81 21 22 81 24617 996368 34866 88% 17 8111 566 21%
c - 81.15 21 21 82 24627 1020968 35167 88% 16 8111 566 21%
c ] 81.32 21 21 82 24629 1023004 36561 88% 16 8111 566 21%
c 
c  seconds  reductions         redundant  irredundant
c         MB      restarts            trail     variables
c          level        conflicts         glue      remaining
c 
c { 81.32 21 18 82 24629 1023004 36561 81% 10 8111 566 21%
c # 82.21 21 18 82 25275 1035101 47197 81% 10 8111 566 21%
c - 83.34 23 18 83 26246 1045869 40349 81% 10 8111 566 21%
c p 83.75 23 18 83 26679 1050018 44153 81% 10 8111 566 21%
c - 86.00 26 18 84 28550 1071069 44127 82% 10 8111 566 21%
c B 86.90 26 18 84 29153 1081102 53143 82% 10 8111 566 21%
c - 88.39 26 18 85 30064 1096570 45104 81% 10 8111 566 21%
c - 90.99 26 18 86 31700 1122371 46855 81% 10 8111 566 21%
c W 91.77 26 18 86 32082 1128103 51906 81% 10 8111 566 21%
c - 93.91 27 17 87 33179 1148471 47890 81% 10 8111 566 21%
c p 94.71 27 17 87 33938 1155019 53923 81% 10 8111 562 21%
c s 94.89 27 17 87 33938 1155019 53756 81% 10 8091 562 21%
c - 97.17 27 18 88 35528 1174871 50550 81% 10 8091 562 21%
c F 97.28 27 18 88 35551 1176105 51709 81% 10 8091 562 21%
c - 99.89 27 17 89 36866 1201576 50065 81% 10 8091 562 21%
c B 102.57 27 17 89 38904 1225108 70994 81% 10 8091 562 21%
c - 102.97 27 17 90 39027 1228576 52349 81% 10 8091 562 21%
c s 104.11 27 17 90 39524 1239669 62263 81% 10 8053 562 21%
c w 104.26 27 17 90 39524 1239669 62259 81% 10 8053 562 21%
c s 104.43 27 17 90 39524 1239669 62254 81% 10 8053 562 21%
c 
c  seconds   reductions         redundant  irredundant
c          MB      restarts            trail     variables
c           level        conflicts         glue      remaining
c 
c - 106.31 27 17 91 40709 1255876 53375 81% 10 8053 562 21%
c p 107.36 27 17 91 41461 1265022 61581 82% 10 8053 559 21%
c W 108.96 21 17 91 42256 1275110 70414 82% 10 8038 559 21%
c - 109.82 20 17 92 42625 1283476 53639 82% 10 8038 559 21%
c - 112.68 23 17 93 43971 1311377 53996 82% 10 8038 559 21%
c # 114.02 23 17 93 44488 1326112 66406 82% 10 8038 559 21%
c s 114.93 23 17 93 45060 1331851 71593 82% 10 8005 559 21%
c w 115.04 23 17 93 45060 1331851 71588 82% 10 8005 559 21%
c s 115.25 23 17 93 45060 1331851 71579 82% 10 8005 559 21%
c - 116.39 27 17 94 45754 1339579 55151 81% 10 8005 559 21%
c - 119.61 27 17 95 47897 1368081 56744 81% 10 8005 559 21%
c B 120.51 27 17 95 48343 1378116 64958 82% 10 8005 559 21%
c p 120.79 27 17 95 48477 1380022 66697 82% 10 8005 559 21%
c - 122.87 27 17 96 49718 1396882 57158 82% 10 8005 559 21%
c - 126.27 28 17 97 51816 1425983 59183 82% 10 8005 559 21%
c W 127.16 28 17 97 52215 1431117 63797 82% 10 8005 559 21%
c - 130.09 28 17 98 53859 1455383 58681 82% 10 8005 559 21%
c - 133.38 28 17 99 55707 1485085 59168 82% 10 8005 559 21%
c F 133.39 28 17 99 55709 1485118 59199 82% 10 8005 559 21%
c p 135.01 28 17 99 56571 1500026 72521 82% 10 8005 559 21%
c 
c  seconds    reductions         redundant  irredundant
c          MB       restarts            trail     variables
c           level         conflicts         glue      remaining
c 
c - 136.87 28 17 100 57586 1515085 60641 82% 10 8005 559 21%
c B 139.63 28 17 100 58961 1540121 82420 82% 10 8005 559 21%
c - 140.44 28 17 101 59390 1545385 61529 82% 10 8005 559 21%
c - 144.11 30 17 102 61289 1575985 62915 82% 10 8005 559 21%
c W 146.78 30 17 102 62513 1596124 79821 82% 10 8005 559 21%
c - 148.28 30 17 103 63340 1606888 62800 82% 10 8005 559 21%
c p 150.42 30 17 103 64667 1625028 78508 82% 10 8005 559 21%
c - 152.14 30 17 104 65514 1638089 63225 83% 10 8005 559 21%
c # 153.92 30 17 104 66509 1653125 76244 83% 10 8005 559 21%
c - 156.11 30 16 105 67502 1669589 64535 83% 10 8005 559 21%
c - 160.01 30 16 106 69224 1701389 64237 83% 10 8005 559 21%
c B 161.29 30 16 106 70258 1711126 72882 83% 10 8005 559 21%
c - 164.17 30 16 107 71699 1733489 67391 83% 10 8005 559 21%
c p 166.87 30 16 107 73197 1755028 86339 82% 10 8005 559 21%
c - 168.31 31 16 108 73685 1765889 67943 82% 10 8005 559 21%
c W 169.23 31 17 108 74034 1770127 71703 82% 10 8005 559 21%
c - 173.39 31 17 109 76340 1798589 69290 82% 10 8005 559 21%
c F 177.52 31 17 109 78625 1830129 96133 82% 10 8005 559 21%
c - 177.85 31 17 110 78771 1831590 69352 82% 10 8005 559 21%
c s 178.15 31 17 110 78771 1831590 69065 82% 10 8005 559 21%
c 
c  seconds    reductions         redundant  irredundant
c          MB       restarts            trail     variables
c           level         conflicts         glue      remaining
c 
c w 178.37 31 17 110 78771 1831590 69043 82% 10 8005 559 21%
c - 182.92 32 17 111 80905 1864891 71158 82% 10 8005 559 21%
c p 186.27 32 17 111 82614 1890029 93429 82% 10 8005 559 21%
c B 186.41 32 17 111 82626 1891131 94426 82% 10 8005 559 21%
c - 187.55 32 17 112 83091 1898491 72294 82% 10 8005 559 21%
c - 191.89 32 17 113 84965 1932392 72187 82% 10 8005 559 21%
c W 194.65 32 16 113 85694 1953134 89638 83% 10 8005 559 21%
c - 196.55 32 16 114 86379 1966593 71884 83% 10 8005 559 21%
c - 201.01 32 16 115 88496 2001093 72889 82% 10 8005 559 21%
c # 202.91 32 16 115 89458 2016136 86211 82% 10 8005 559 21%
c p 204.82 32 16 115 90230 2030032 97966 82% 10 8005 559 21%
c - 205.63 33 16 116 90430 2035895 73856 82% 10 8005 559 21%
c } 207.00 33 16 116 91074 2047004 83393 82% 10 8005 559 21%
c [ 207.00 33 21 116 91074 2047004 83393 88% 16 8005 559 21%
c - 209.63 33 20 117 91084 2070995 72716 88% 16 8005 559 21%
c I 210.72 33 20 117 91089 2080140 78614 88% 16 8005 559 21%
c - 213.48 33 21 118 91093 2106396 69115 88% 16 8005 559 21%
c - 218.21 33 21 119 91108 2142096 66635 87% 16 8005 559 21%
c B 218.60 33 21 119 91108 2145142 68809 87% 16 8005 559 21%
c p 221.79 33 21 119 91123 2175033 91444 87% 16 8005 559 21%
c 
c  seconds    reductions         redundant  irredundant
c          MB       restarts            trail     variables
c           level         conflicts         glue      remaining
c 
c - 222.20 33 21 120 91123 2178097 63985 87% 16 8005 559 21%
c W 226.19 33 22 120 91125 2211143 93181 88% 17 8005 559 21%
c - 226.73 25 22 121 91125 2214397 67571 88% 17 8005 559 21%
c - 231.20 24 22 122 91126 2250997 66026 88% 17 8005 559 21%
c O 234.21 24 23 122 91126 2278147 89372 87% 17 8005 559 21%
c - 235.65 30 23 123 91126 2287898 68311 87% 17 8005 559 21%
c p 240.67 30 23 123 91127 2325034 97413 87% 17 8005 559 21%
c - 240.76 30 23 124 91127 2325098 68348 87% 17 8005 559 21%
c B 243.20 30 22 124 91127 2346149 83535 87% 17 8005 559 21%
c - 245.13 30 23 125 91127 2362598 69004 87% 17 8005 559 21%
c - 249.86 24 24 126 91127 2400399 72775 87% 18 8005 559 21%
c s 250.11 25 24 126 91127 2400399 72613 87% 18 8005 559 21%
c w 250.38 25 24 126 91127 2400399 72593 87% 18 8005 559 21%
c W 253.45 25 24 126 91127 2415150 83691 87% 18 8005 559 21%
c - 257.51 26 24 127 91134 2438499 72624 87% 18 8005 559 21%
c - 263.38 25 21 128 91152 2476899 67439 87% 17 8005 559 21%
c p 263.74 25 21 128 91155 2480035 70031 87% 17 8005 559 21%
c I 264.21 25 21 128 91156 2485151 73693 87% 17 8005 559 21%
c - 267.11 30 21 129 91162 2515599 67450 87% 16 8005 559 21%
c - 271.66 35 20 130 91180 2554600 66788 87% 16 8005 559 21%
c 
c  seconds    reductions         redundant  irredundant
c          MB       restarts            trail     variables
c           level         conflicts         glue      remaining
c 
c B 271.84 35 21 130 91181 2556153 67944 87% 16 8005 559 21%
c - 276.23 35 21 131 91190 2593900 68715 87% 16 8005 559 21%
c W 280.99 35 21 131 91192 2628154 96208 87% 17 8005 559 21%
c - 281.88 35 21 132 91196 2633501 69769 87% 16 8005 559 21%
c p 282.70 35 21 132 91198 2640037 74711 87% 17 8005 559 21%
c - 287.50 35 21 133 91214 2673405 67507 87% 17 8005 559 21%
c O 290.86 35 22 133 91221 2701155 87211 87% 17 8005 559 21%
c - 292.51 35 21 134 91224 2713605 68855 87% 17 8005 559 21%
c - 297.58 35 21 135 91243 2754107 70765 86% 16 8005 559 21%
c B 300.26 35 21 135 91251 2775156 85458 86% 16 8005 559 21%
c - 302.68 35 23 136 91253 2794910 73614 86% 17 8005 559 21%
c p 303.92 35 23 136 91253 2805037 82751 87% 18 8005 559 21%
c - 308.88 27 24 137 91254 2836010 75922 86% 18 8005 559 21%
c W 311.61 27 24 137 91254 2850157 87156 87% 18 8005 559 21%
c - 316.15 26 24 138 91254 2877411 74727 86% 18 8005 559 21%
c - 322.09 32 24 139 91269 2919112 72394 86% 18 8005 559 21%
c I 322.91 32 24 139 91270 2926158 78228 86% 19 8005 559 21%
c - 326.89 38 26 140 91285 2961112 75354 87% 20 8005 559 21%
c p 328.81 38 26 140 91285 2975037 86073 87% 20 8005 559 21%
c B 332.72 38 27 140 91300 3003160 107879 87% 21 8005 559 21%
c 
c  seconds    reductions         redundant  irredundant
c          MB       restarts            trail     variables
c           level         conflicts         glue      remaining
c 
c - 332.82 32 27 141 91300 3003412 74550 87% 21 8005 559 21%
c s 333.08 32 27 141 91300 3003412 74480 87% 21 8005 559 21%
c w 333.34 32 27 141 91300 3003412 74459 87% 21 8005 559 21%
c - 339.61 34 28 142 91316 3046013 74866 87% 21 8005 559 21%
c ] 344.70 34 27 142 91317 3081161 104167 87% 21 8005 559 21%
c 1 344.70 34 27 142 91317 3081161 104167 87% 21 8005 559 21%
c 
c --- [ result ] -------------------------------------------------------------
c 
s SATISFIABLE
v -1 -2 -3 -4 -5 -6 -7 8 -9 -10 11 -12 -13 -14 -15 16 -17 18 -19 -20 21 -22
v -23 24 -25 -26 -27 -28 -29 30 31 -32 -33 -34 -35 36 -37 -38 -39 -40 -41 -42
v -43 -44 -45 -46 47 -48 -49 -50 -51 -52 -53 -54 -55 56 -57 -58 -59 -60 -61
v -62 -63 -64 -65 -66 -67 -68 69 70 71 72 -73 -74 -75 -76 -77 -78 -79 -80 -81
v -82 -83 -84 85 -86 -87 -88 89 -90 -91 -92 -93 -94 -95 96 97 -98 -99 100 -101
v -102 -103 -104 -105 -106 -107 -108 -109 -110 111 -112 -113 -114 -115 -116
v -117 118 -119 -120 -121 -122 123 -124 -125 -126 -127 -128 -129 -130 131 -132
v -133 -134 -135 -136 -137 -138 -139 140 141 -142 -143 -144 -145 -146 -147 148
v -149 -150 -151 -152 153 -154 -155 -156 -157 -158 -159 -160 161 162 -163 -164
v -165 -166 -167 168 -169 -170 -171 -172 173 -174 -175 -176 -177 -178 179 -180
v -181 -182 183 -184 -185 -186 -187 -188 -189 -190 -191 -192 -193 -194 -195
v -196 -197 198 -199 -200 201 -202 -203 -204 -205 -206 -207 -208 -209 210 -211
v -212 -213 -214 -215 -216 -217 218 -219 -220 -221 -222 -223 -224 -225 -226
v -227 -228 -229 -230 231 232 233 234 -235 -236 -237 -238 -239 240 -241 -242
v -243 -244 -245 -246 -247 -248 -249 -250 251 -252 253 -254 -255 -256 257 -258
v -259 -260 -261 -262 263 264 -265 266 -267 -268 269 -270 -271 -272 273 -274
v -275 -276 -277 278 -279 -280 -281 282 283 -284 285 286 -287 288 289 290 -291
v -292 -293 -294 295 -296 297 298 299 -300 -301 -302 -303 304 305 -306 307 308
v 309 310 311 -312 -313 -314 -315 -316 317 -318 319 320 -321 -322 323 -324 325
v 326 327 328 329 330 331 332 333 334 335 336 337 338 339 340 341 342 343 344
v 345 346 347 348 349 350 351 352 353 354 355 356 357 358 359 360 361 362 363
v 364 365 366 367 368 369 370 371 372 373 374 375 376 377 378 379 380 381 382
v 383 384 385 386 387 388 389 390 391 392 393 394 395 396 397 398 -399 -400
v 401 402 403 404 405 406 407 408 409 410 411 412 413 414 415 416 417 418 419
v 420 421 422 423 424 425 426 427 428 429 430 431 432 433 434 435 436 437 438
v 439 440 441 442 443 444 445 446 447 448 449 450 451 452 453 454 455 456 457
v 458 459 460 461 462 463 464 465 466 467 468 469 470 471 472 -473 -474 -475
v -476 -477 -478 479 480 481 482 483 484 485 486 487 488 489 490 491 492 493
v 494 495 496 497 498 499 500 501 502 503 504 505 506 507 508 509 510 511 512
v 513 514 515 516 517 518 519 520 521 522 523 524 525 526 527 528 529 530 531
v 532 533 534 535 536 537 538 539 540 541 542 543 544 545 546 -547 -548 -549
v -550 -551 -552 -553 -554 -555 -556 -557 -558 559 560 561 562 563 564 565 566
v 567 568 569 570 571 572 573 574 575 576 577 578 579 580 581 582 583 584 585
v 586 587 588 589 590 591 592 593 594 595 596 597 598 599 600 601 602 603 604
v 605 606 607 608 609 610 611 612 613 614 615 616 617 618 619 620 -621 -622
v -623 -624 -625 -626 -627 -628 -629 -630 -631 -632 -633 634 635 636 637 638
v 639 640 641 642 643 644 645 646 647 648 649 650 651 652 653 654 655 656 657
v 658 659 660 661 662 663 664 665 666 667 668 669 670 671 672 673 674 675 676
v 677 678 679 680 681 682 683 684 685 686 687 688 689 690 691 692 693 694 -695
v -696 -697 -698 -699 -700 -701 -702 -703 -704 -705 -706 -707 -708 -709 710
v 711 712 713 714 715 716 717 718 719 720 721 722 723 724 725 726 727 728 729
v 730 731 732 733 734 735 736 737 738 739 740 741 742 743 744 745 746 747 748
v 749 750 751 752 753 754 755 756 757 758 759 760 761 762 763 764 765 766 767
v 768 -769 -770 -771 -772 -773 -774 -775 -776 -777 -778 -779 -780 -781 -782
v -783 -784 -785 -786 787 788 789 790 791 792 793 794 795 796 797 798 799 800
v 801 802 803 804 805 806 807 808 809 810 811 812 813 814 815 816 817 818 819
v 820 821 822 823 824 825 826 827 828 829 830 831 832 833 834 835 836 837 838
v 839 840 841 842 -843 -844 -845 -846 -847 -848 -849 -850 -851 -852 -853 -854
v -855 -856 -857 -858 -859 -860 -861 -862 -863 -864 865 866 867 868 869 870
v 871 872 873 874 875 876 877 878 879 880 881 882 883 884 885 886 887 888 889
v 890 891 892 893 894 895 896 897 898 899 900 901 902 903 904 905 906 907 908
v 909 910 911 912 913 914 915 916 -917 -918 -919 -920 -921 -922 -923 -924 -925
v -926 -927 -928 -929 -930 -931 -932 -933 -934 -935 -936 -937 -938 -939 -940
v -941 -942 -943 944 945 946 947 948 949 950 951 952 953 954 955 956 957 958
v 959 960 961 962 963 964 965 966 967 968 969 970 971 972 973 974 975 976 977
v 978 979 980 981 982 983 984 985 986 987 988 989 990 -991 -992 -993 -994 -995
v -996 -997 -998 -999 -1000 -1001 -1002 -1003 -1004 -1005 -1006 -1007 -1008
v -1009 -1010 -1011 -1012 -1013 -1014 -1015 -1016 -1017 -1018 -1019 -1020
v -1021 1022 1023 1024 1025 1026 1027 1028 1029 1030 1031 1032 1033 1034 1035
v 1036 1037 1038 1039 1040 1041 1042 1043 1044 1045 1046 1047 1048 1049 1050
v 1051 1052 1053 1054 1055 1056 1057 1058 1059 1060 1061 1062 1063 1064 -1065
v -1066 -1067 -1068 -1069 -1070 -1071 -1072 -1073 -1074 -1075 -1076 -1077
v -1078 -1079 -1080 -1081 -1082 -1083 -1084 -1085 -1086 -1087 -1088 -1089
v -1090 -1091 -1092 -1093 -1094 -1095 -1096 1097 1098 1099 1100 1101 1102 1103
v 1104 1105 1106 1107 1108 1109 1110 1111 1112 1113 1114 1115 1116 1117 1118
v 1119 1120 1121 1122 1123 1124 1125 1126 1127 1128 1129 1130 1131 1132 1133
v 1134 1135 1136 1137 1138 -1139 -1140 -1141 -1142 -1143 -1144 -1145 -1146
v -1147 -1148 -1149 -1150 -1151 -1152 -1153 -1154 -1155 -1156 -1157 -1158
v -1159 -1160 -1161 -1162 -1163 -1164 -1165 -1166 -1167 -1168 -1169 -1170
v -1171 -1172 1173 1174 1175 1176 1177 1178 1179 1180 1181 1182 1183 1184 1185
v 1186 1187 1188 1189 1190 1191 1192 1193 1194 1195 1196 1197 1198 1199 1200
v 1201 1202 1203 1204 1205 1206 1207 1208 1209 1210 1211 1212 -1213 -1214
v -1215 -1216 -1217 -1218 -1219 -1220 -1221 -1222 -1223 -1224 -1225 -1226
v -1227 -1228 -1229 -1230 -1231 -1232 -1233 -1234 -1235 -1236 -1237 -1238
v -1239 -1240 -1241 -1242 -1243 -1244 -1245 -1246 -1247 1248 1249 1250 1251
v 1252 1253 1254 1255 1256 1257 1258 1259 1260 1261 1262 1263 1264 1265 1266
v 1267 1268 1269 1270 1271 1272 1273 1274 1275 1276 1277 1278 1279 1280 1281
v 1282 1283 1284 1285 1286 -1287 -1288 -1289 -1290 -1291 -1292 -1293 -1294
v -1295 -1296 -1297 -1298 -1299 -1300 -1301 -1302 -1303 -1304 -1305 -1306
v -1307 -1308 -1309 -1310 -1311 -1312 -1313 -1314 -1315 -1316 -1317 -1318
v -1319 -1320 -1321 -1322 -1323 1324 1325 1326 1327 1328 1329 1330 1331 1332
v 1333 1334 1335 1336 1337 1338 1339 1340 1341 1342 1343 1344 1345 1346 1347
v 1348 1349 1350 1351 1352 1353 1354 1355 1356 1357 1358 1359 1360 -1361 -1362
v -1363 -1364 -1365 -1366 -1367 -1368 -1369 -1370 -1371 -1372 -1373 -1374
v -1375 -1376 -1377 -1378 -1379 -1380 -1381 -1382 -1383 -1384 -1385 -1386
v -1387 -1388 -1389 -1390 -1391 -1392 -1393 -1394 -1395 -1396 -1397 -1398 1399
v 1400 1401 1402 1403 1404 1405 1406 1407 1408 1409 1410 1411 1412 1413 1414
v 1415 1416 1417 1418 1419 1420 1421 1422 1423 1424 1425 1426 1427 1428 1429
v 1430 1431 1432 1433 1434 -1435 -1436 -1437 -1438 -1439 -1440 -1441 -1442
v -1443 -1444 -1445 -1446 -1447 -1448 -1449 -1450 -1451 -1452 -1453 -1454
v -1455 -1456 -1457 -1458 -1459 -1460 -1461 -1462 -1463 -1464 -1465 -1466
v -1467 -1468 -1469 -1470 -1471 -1472 -1473 1474 1475 1476 1477 1478 1479 1480
v 1481 1482 1483 1484 1485 1486 1487 1488 1489 1490 1491 1492 1493 1494 1495
v 1496 1497 1498 1499 1500 1501 1502 1503 1504 1505 1506 1507 1508 -1509 -1510
v -1511 -1512 -1513 -1514 -1515 -1516 -1517 -1518 -1519 -1520 -1521 -1522
v -1523 -1524 -1525 -1526 -1527 -1528 -1529 -1530 -1531 -1532 -1533 -1534
v -1535 -1536 -1537 -1538 -1539 -1540 -1541 -1542 -1543 -1544 -1545 -1546
v -1547 -1548 -1549 -1550 -1551 -1552 1553 1554 1555 1556 1557 1558 1559 1560
v 1561 1562 1563 1564 1565 1566 1567 1568 1569 1570 1571 1572 1573 1574 1575
v 1576 1577 1578 1579 1580 1581 1582 -1583 -1584 -1585 -1586 -1587 -1588 -1589
v -1590 -1591 -1592 -1593 -1594 -1595 -1596 -1597 -1598 -1599 -1600 -1601
v -1602 -1603 -1604 -1605 -1606 -1607 -1608 -1609 -1610 -1611 -1612 -1613
v -1614 -1615 -1616 -1617 -1618 -1619 -1620 -1621 -1622 -1623 -1624 -1625
v -1626 -1627 -1628 1629 1630 1631 1632 1633 1634 1635 1636 1637 1638 1639
v 1640 1641 1642 1643 1644 1645 1646 1647 1648 1649 1650 1651 1652 1653 1654
v 1655 1656 -1657 -1658 -1659 -1660 -1661 -1662 -1663 -1664 -1665 -1666 -1667
v -1668 -1669 -1670 -1671 -1672 -1673 -1674 -1675 -1676 -1677 -1678 -1679
v -1680 -1681 -1682 -1683 -1684 -1685 -1686 -1687 -1688 -1689 -1690 -1691
v -1692 -1693 -1694 -1695 -1696 -1697 -1698 -1699 -1700 -1701 -1702 -1703 1704
v 1705 1706 1707 1708 1709 1710 1711 1712 1713 1714 1715 1716 1717 1718 1719
v 1720 1721 1722 1723 1724 1725 1726 1727 1728 1729 1730 -1731 -1732 -1733
v -1734 -1735 -1736 -1737 -1738 -1739 -1740 -1741 -1742 -1743 -1744 -1745
v -1746 -1747 -1748 -1749 -1750 -1751 -1752 -1753 -1754 -1755 -1756 -1757
v -1758 -1759 -1760 -1761 -1762 -1763 -1764 -1765 -1766 -1767 -1768 -1769
v -1770 -1771 -1772 -1773 -1774 -1775 -1776 -1777 -1778 1779 1780 1781 1782
v 1783 1784 1785 1786 1787 1788 1789 1790 1791 1792 1793 1794 1795 1796 1797
v 1798 1799 1800 1801 1802 1803 1804 -1805 -1806 -1807 -1808 -1809 -1810 -1811
v -1812 -1813 -1814 -1815 -1816 -1817 -1818 -1819 -1820 -1821 -1822 -1823
v -1824 -1825 -1826 -1827 -1828 -1829 -1830 -1831 -1832 -1833 -1834 -1835
v -1836 -1837 -1838 -1839 -1840 -1841 -1842 -1843 -1844 -1845 -1846 -1847
v -1848 -1849 -1850 -1851 -1852 -1853 -1854 -1855 -1856 -1857 1858 1859 1860
v 1861 1862 1863 1864 1865 1866 1867 1868 1869 1870 1871 1872 1873 1874 1875
v 1876 1877 1878 -1879 -1880 -1881 -1882 -1883 -1884 -1885 -1886 -1887 -1888
v -1889 -1890 -1891 -1892 -1893 -1894 -1895 -1896 -1897 -1898 -1899 -1900
v -1901 -1902 -1903 -1904 -1905 -1906 -1907 -1908 -1909 -1910 -1911 -1912
v -1913 -1914 -1915 -1916 -1917 -1918 -1919 -1920 -1921 -1922 -1923 -1924
v -1925 -1926 -1927 -1928 -1929 -1930 -1931 -1932 1933 1934 1935 1936 1937
v 1938 1939 1940 1941 1942 1943 1944 1945 1946 1947 1948 1949 1950 1951 1952
v -1953 -1954 -1955 -1956 -1957 -1958 -1959 -1960 -1961 -1962 -1963 -1964
v -1965 -1966 -1967 -1968 -1969 -1970 -1971 -1972 -1973 -1974 -1975 -1976
v -1977 -1978 -1979 -1980 -1981 -1982 -1983 -1984 -1985 -1986 -1987 -1988
v -1989 -1990 -1991 -1992 -1993 -1994 -1995 -1996 -1997 -1998 -1999 -2000
v -2001 -2002 -2003 -2004 -2005 -2006 -2007 -2008 2009 2010 2011 2012 2013
v 2014 2015 2016 2017 2018 2019 2020 2021 2022 2023 2024 2025 2026 -2027 -2028
v -2029 -2030 -2031 -2032 -2033 -2034 -2035 -2036 -2037 -2038 -2039 -2040
v -2041 -2042 -2043 -2044 -2045 -2046 -2047 -2048 -2049 -2050 -2051 -2052
v -2053 -2054 -2055 -2056 -2057 -2058 -2059 -2060 -2061 -2062 -2063 -2064
v -2065 -2066 -2067 -2068 -2069 -2070 -2071 -2072 -2073 -2074 -2075 -2076
v -2077 -2078 -2079 -2080 -2081 -2082 -2083 2084 2085 2086 2087 2088 2089 2090
v 2091 2092 2093 2094 2095 2096 2097 2098 2099 2100 -2101 -2102 -2103 -2104
v -2105 -2106 -2107 -2108 -2109 -2110 -2111 -2112 -2113 -2114 -2115 -2116
v -2117 -2118 -2119 -2120 -2121 -2122 -2123 -2124 -2125 -2126 -2127 -2128
v -2129 -2130 -2131 -2132 -2133 -2134 -2135 -2136 -2137 -2138 -2139 -2140
v -2141 -2142 -2143 -2144 -2145 -2146 -2147 -2148 -2149 -2150 -2151 -2152
v -2153 -2154 -2155 -2156 -2157 -2158 2159 2160 2161 2162 2163 2164 2165 2166
v 2167 2168 2169 2170 2171 2172 2173 2174 -2175 -2176 -2177 -2178 -2179 -2180
v -2181 -2182 -2183 -2184 -2185 -2186 -2187 -2188 -2189 -2190 -2191 -2192
v -2193 -2194 -2195 -2196 -2197 -2198 -2199 -2200 -2201 -2202 -2203 -2204
v -2205 -2206 -2207 -2208 -2209 -2210 -2211 -2212 -2213 -2214 -2215 -2216
v -2217 -2218 -2219 -2220 -2221 -2222 -2223 -2224 -2225 -2226 -2227 -2228
v -2229 -2230 -2231 -2232 -2233 2234 2235 2236 2237 2238 2239 2240 2241 2242
v 2243 2244 2245 2246 2247 2248 -2249 -2250 -2251 -2252 -2253 -2254 -2255
v -2256 -2257 -2258 -2259 -2260 -2261 -2262 -2263 -2264 -2265 -2266 -2267
v -2268 -2269 -2270 -2271 -2272 -2273 -2274 -2275 -2276 -2277 -2278 -2279
v -2280 -2281 -2282 -2283 -2284 -2285 -2286 -2287 -2288 -2289 -2290 -2291
v -2292 -2293 -2294 -2295 -2296 -2297 -2298 -2299 -2300 -2301 -2302 -2303
v -2304 -2305 -2306 -2307 -2308 2309 2310 2311 2312 2313 2314 2315 2316 2317
v 2318 2319 2320 2321 2322 -2323 -2324 -2325 -2326 -2327 -2328 -2329 -2330
v -2331 -2332 -2333 -2334 -2335 -2336 -2337 -2338 -2339 -2340 -2341 -2342
v -2343 -2344 -2345 -2346 -2347 -2348 -2349 -2350 -2351 -2352 -2353 -2354
v -2355 -2356 -2357 -2358 -2359 -2360 -2361 -2362 -2363 -2364 -2365 -2366
v -2367 -2368 -2369 -2370 -2371 -2372 -2373 -2374 -2375 -2376 -2377 -2378
v -2379 -2380 -2381 -2382 -2383 -2384 -2385 -2386 -2387 -2388 2389 2390 2391
v 2392 2393 2394 2395 2396 -2397 -2398 -2399 -2400 -2401 -2402 -2403 -2404
v -2405 -2406 -2407 -2408 -2409 -2410 -2411 -2412 -2413 -2414 -2415 -2416
v -2417 -2418 -2419 -2420 -2421 -2422 -2423 -2424 -2425 -2426 -2427 -2428
v -2429 -2430 -2431 -2432 -2433 -2434 -2435 -2436 -2437 -2438 -2439 -2440
v -2441 -2442 -2443 -2444 -2445 -2446 -2447 -2448 -2449 -2450 -2451 -2452
v -2453 -2454 -2455 -2456 -2457 -2458 -2459 -2460 -2461 -2462 -2463 -2464 2465
v 2466 2467 2468 2469 2470 -2471 -2472 -2473 -2474 -2475 -2476 -2477 -2478
v -2479 -2480 -2481 -2482 -2483 -2484 -2485 -2486 -2487 -2488 -2489 -2490
v -2491 -2492 -2493 -2494 -2495 -2496 -2497 -2498 -2499 -2500 -2501 -2502
v -2503 -2504 -2505 -2506 -2507 -2508 -2509 -2510 -2511 -2512 -2513 -2514
v -2515 -2516 -2517 -2518 -2519 -2520 -2521 -2522 -2523 -2524 -2525 -2526
v -2527 -2528 -2529 -2530 -2531 -2532 -2533 -2534 -2535 -2536 -2537 -2538
v -2539 2540 2541 2542 2543 2544 -2545 -2546 -2547 -2548 -2549 -2550 -2551
v -2552 -2553 -2554 -2555 -2556 -2557 -2558 -2559 -2560 -2561 -2562 -2563
v -2564 -2565 -2566 -2567 -2568 -2569 -2570 -2571 -2572 -2573 -2574 -2575
v -2576 -2577 -2578 -2579 -2580 -2581 -2582 -2583 -2584 -2585 -2586 -2587
v -2588 -2589 -2590 -2591 -2592 -2593 -2594 -2595 -2596 -2597 -2598 -2599
v -2600 -2601 -2602 -2603 -2604 -2605 -2606 -2607 -2608 -2609 -2610 -2611
v -2612 -2613 -2614 -2615 -2616 2617 2618 -2619 -2620 -2621 -2622 -2623 -2624
v -2625 -2626 -2627 -2628 -2629 -2630 -2631 -2632 -2633 -2634 -2635 -2636
v -2637 -2638 -2639 -2640 -2641 -2642 -2643 -2644 -2645 -2646 -2647 -2648
v -2649 -2650 -2651 -2652 -2653 -2654 -2655 -2656 -2657 -2658 -2659 -2660
v -2661 -2662 -2663 -2664 -2665 -2666 -2667 -2668 -2669 -2670 -2671 -2672
v -2673 -2674 -2675 -2676 -2677 -2678 -2679 -2680 -2681 -2682 -2683 -2684
v -2685 -2686 -2687 -2688 -2689 -2690 -2691 -2692 0
c 
c --- [ run-time profiling ] -------------------------------------------------
c 
c process time taken by individual solving procedures
c (percentage relative to process time for solving)
c 
c       339.60   98.52% search
c       188.92   54.81% stable
c       143.88   41.74% unstable
c         6.80    1.97% walk
c         5.10    1.48% simplify
c         2.13    0.62% subsume
c         1.31    0.38% vivify
c         0.77    0.22% probe
c         0.26    0.08% ternary
c         0.10    0.03% elim
c         0.00    0.00% parse
c         0.00    0.00% lucky
c   =================================
c       344.70  100.00% solve
c 
c last line shows process time for solving
c (percentage relative to total process time)
c 
c --- [ statistics ] ---------------------------------------------------------
c 
c chronological:            558123        18.11 %  of conflicts
c conflicts:               3081161      8938.69    per second
c decisions:               4929716     14301.49    per second
c eliminated:                 2051        76.19 %  of all variables
c fixed:                        82         3.05 %  of all variables
c learned:                 3028782        98.30 %  per conflict
c learned_lits:          122554965       100.00 %  learned literals
c minimized:                     0         0.00 %  learned literals
c shrunken:               44086624        35.97 %  learned literals
c minishrunken:           11631298         9.49 %  learned literals
c propagations:          240966351         0.70 M  per second
c reduced:                 2420685        78.56 %  per conflict
c rephased:                     78     39502.06    interval
c restarts:                  91317        33.74    interval
c stabilizing:                   6        55.70 %  of conflicts
c subsumed:                 488929         8.02 %  of all clauses
c strengthened:              15625         0.26 %  of all clauses
c ternary:                      43         0.04 %  of resolved
c vivified:                    261         0.00 %  of all clauses
c walked:                       25    123246.44    interval
c weakened:                   8781         2.90    average size
c 
c seconds are measured in process time for solving
c 
c --- [ resources ] ----------------------------------------------------------
c 
c total process time since initialization:       344.71    seconds
c total real time since initialization:          344.87    seconds
c maximum resident set size of process:           41.27    MB
c 
c --- [ shutting down ] ------------------------------------------------------
c 
c exit 10
